# Generalized LAMMPS Input Script with Element-Specific MSD Calculation
# Simulation control parameters.
variable         t_eq equal $eq_steps # Equilibration time.
variable         t equal $run_steps # Switching time.


# Initialize simulation
units metal
atom_style atomic
boundary p p p
timestep 0.001

units            metal
# Create atoms.
read_data 	  system.data
# Define interatomic potential.
pair_style       $pair_style

include forcefield.lammps

neigh_modify     delay 0 #every 1 check yes
timestep         $timestep

# Define variables for output
variable mvol equal vol
variable mlx equal lx
variable mly equal ly
variable mlz equal lz
variable mpress equal press

$group_flag

# Create initial velocities
velocity all create $temperature 999  # Replace random_seed with an actual seed number

variable xcm equal xcm(all,x)
variable ycm equal xcm(all,y)
variable zcm equal xcm(all,z)

fix f1 all nph aniso $pressure $pressure $friction fixedpoint ${xcm} ${ycm} ${zcm}
fix f2 all langevin $temperature $temperature $friction 999 zero yes
compute c1 all temp/com
fix_modify f1 temp c1
fix_modify f2 temp c1

# Compute mean squared displacement (MSD) for each element type
$compute_MSD_flag
#compute msd_Na Na msd com yes
#variable msd_Na equal c_msd_Na[4]

#compute msd_Cl Cl msd com yes
#variable msd_Cl equal c_msd_Cl[4]

#compute msd_element3 all msd type 3 com yes
#variable msd_element3 equal c_msd_element3[4]

# Customize thermodynamic output
thermo_style custom step pe press vol etotal temp lx ly lz
thermo 100

# Run the simulation
run 10000

# Unfix and redefine NPT ensemble for further simulation
#unfix f1
#fix f1 all npt temp ${T} ${T} 0.1 aniso 0.0 0.0 0.1

#compute          c1 all temp/com
#fix_modify       nh1 temp c1
# Averaging fix for output data
fix 2 all ave/time 10 10 100 v_mlx v_mly v_mlz v_mpress $msd_dumps file avg.dat

# Run additional simulation steps
run 10000
run 10000
run 10000

# Output trajectory data
dump 2 all custom traj.equilibration_stage1.dump id type mass x y z vx vy vz
run 0  # Zero-step run to output the current state
write_data eq.data

# Clean up
undump 2
unfix f1
unfix f2
